73
73
73
73
73
73
73
73
73
73
73
73
73
73
73
73
73
73
74
74
74
74
74
74
74
74
74
74
74
74
74
74
74
74
74
74
74
74
74
74
74
74
75
75
75
75
75
75
75
75
75
75
75
75
75
75
75
75
75
75
75
75
75
75
75
75
76
76
76
76
76
76
76
76
76
76
76
76
76
76
76
76
76
76
76
76
76
76
77
77
77
77
77
77
77
77
77
77
77
77
77
77
77
77
77
77
77
77
77
77
77
78
78
78
78
78
78
78
78
78
78
78
78
78
78
78
78
78
78
78
78
78
78
79
79
79
79
79
79
79
79
79
79
79
79
79
79
79
79
79
79
79
79
79
80
80
80
80
80
80
80
80
80
80
80
80
80
80
80
80
80
80
80
80
80
81
81
81
81
81
81
81
81
81
81
81
81
81
81
81
81
81
81
81
81
82
82
82
82
82
82
82
82
82
82
82
82
82
82
82
82
82
82
82
82
83
83
83
83
83
83
83
83
83
83
83
83
83
83
83
83
83
83
83
84
84
84
84
84
84
84
84
84
84
84
84
84
84
84
84
84
84
84
84
85
85
85
85
85
85
85
85
85
85
85
85
85
85
85
85
85
85
86
86
86
86
86
86
86
86
86
86
86
86
86
86
86
86
86
86
87
87
87
87
87
87
87
87
87
87
87
87
87
87
87
87
87
87
88
88
88
88
88
88
88
88
88
88
88
88
88
88
88
88
88
88
89
89
89
89
89
89
89
89
89
89
89
89
89
89
89
89
89
90
90
90
90
90
90
90
90
90
90
90
90
90
90
90
90
90
91
91
91
91
91
91
91
91
91
91
91
91
91
91
91
91
92
92
92
92
92
92
92
92
92
92
92
92
92
92
92
92
93
93
93
93
93
93
93
93
93
93
93
93
93
93
93
93
94
94
94
94
94
94
94
94
94
94
94
94
94
94
94
94
95
95
95
95
95
95
95
95
95
95
95
95
95
95
95
96
96
96
96
96
96
96
96
96
96
96
96
96
96
96
97
97
97
97
97
97
97
97
97
97
97
97
97
97
97
98
98
98
98
98
98
98
98
98
98
98
98
98
98
99
99
99
99
99
99
99
99
99
99
99
99
99
99
100
100
100
100
100
100
100
100
100
100
100
100
100
100
101
101
101
101
101
101
101
101
101
101
101
101
101
102
102
102
102
102
102
102
102
102
102
102
102
102
102
103
103
103
103
103
103
103
103
103
103
103
103
103
104
104
104
104
104
104
104
104
104
104
104
104
104
105
105
105
105
105
105
105
105
105
105
105
105
106
106
106
106
106
106
106
106
106
106
106
106
106
107
107
107
107
107
107
107
107
107
107
107
107
108
108
108
108
108
108
108
108
108
108
108
108
109
109
109
109
109
109
109
109
109
109
109
109
110
110
110
110
110
110
110
110
110
110
110
110
111
111
111
111
111
111
111
111
111
111
111
112
112
112
112
112
112
112
112
112
112
112
113
113
113
113
113
113
113
113
113
113
113
114
114
114
114
114
114
114
114
114
114
114
115
115
115
115
115
115
115
115
115
115
115
116
116
116
116
116
116
116
116
116
116
117
117
117
117
117
117
117
117
117
117
117
118
118
118
118
118
118
118
118
118
118
119
119
119
119
119
119
119
119
119
119
120
120
120
120
120
120
120
120
120
120
121
121
121
121
121
121
121
121
121
122
122
122
122
122
122
122
122
122
122
123
123
123
123
123
123
123
123
123
124
124
124
124
124
124
124
124
124
124
125
125
125
125
125
125
125
125
125
126
126
126
126
126
126
126
126
126
127
127
127
127
127
127
127
127
127
128
128
128
128
128
128
128
128
129
129
129
129
129
129
129
129
129
130
130
130
130
130
130
130
130
131
131
131
131
131
131
131
131
131
132
132
132
132
132
132
132
132
133
133
133
133
133
133
133
133
134
134
134
134
134
134
134
134
135
135
135
135
135
135
135
135
136
136
136
136
136
136
136
136
137
137
137
137
137
137
137
137
138
138
138
138
138
138
138
139
139
139
139
139
139
139
139
140
140
140
140
140
140
140
141
141
141
141
141
141
141
142
142
142
142
142
142
142
143
143
143
143
143
143
143
143
144
144
144
144
144
144
144
145
145
145
145
145
145
146
146
146
146
146
146
146
147
147
147
147
147
147
147
148
148
148
148
148
148
148
149
149
149
149
149
149
150
150
150
150
150
150
150
151
151
151
151
151
151
152
152
152
152
152
152
153
153
153
153
153
153
153
154
154
154
154
154
154
155
155
155
155
155
155
156
156
156
156
156
156
157
157
157
157
157
157
158
158
158
158
158
158
159
159
159
159
159
160
160
160
160
160
160
161
161
161
161
161
161
162
162
162
162
162
163
163
163
163
163
163
164
164
164
164
164
165
165
165
165
165
165
166
166
166
166
166
167
167
167
167
167
168
168
168
168
168
168
169
169
169
169
169
170
170
170
170
170
171
171
171
171
171
172
172
172
172
172
173
173
173
173
173
174
174
174
174
174
175
175
175
175
175
176
176
176
176
177
177
177
177
177
178
178
178
178
178
179
179
179
179
180
180
180
180
180
181
181
181
181
182
182
182
182
182
183
183
183
183
184
184
184
184
184
185
185
185
185
186
186
186
186
187
187
187
187
187
188
188
188
188
189
189
189
189
190
190
190
190
191
191
191
191
192
192
192
192
193
193
193
193
194
194
194
194
195
195
195
195
196
196
196
196
197
197
197
197
198
198
198
198
199
199
199
200
200
200
200
201
201
201
201
202
202
202
202
203
203
203
204
204
204
204
205
205
205
206
206
206
206
207
207
207
208
208
208
208
209
209
209
210
210
210
210
211
211
211
212
212
212
213
213
213
213
214
214
214
215
215
215
216
216
216
217
217
217
217
218
218
218
219
219
219
220
220
220
221
221
221
222
222
222
223
223
223
224
224
224
225
225
225
226
226
226
227
227
227
228
228
228
229
229
229
230
230
230
231
231
231
232
232
233
233
233
234
234
234
235
235
235
236
236
237
237
237
238
238
238
239
239
240
240
240
241
241
241
242
242
243
243
243
244
244
245
245
245
246
246
247
247
247
248
248
249
249
249
250
250
251
251
251
252
252
253
253
254
254
254
255
255
256
256
257
257
257
258
258
259
259
260
260
261
261
261
262
262
263
263
264
264
265
265
266
266
266
267
267
268
268
269
269
270
270
271
271
272
272
273
273
274
274
275
275
276
276
277
277
278
278
279
279
280
280
281
281
282
282
283
283
284
284
285
285
286
286
287
288
288
289
289
290
290
291
291
292
293
293
294
294
295
295
296
296
297
298
298
299
299
300
301
301
302
302
303
304
304
305
305
306
307
307
308
308
309
310
310
311
312
312
313
313
314
315
315
316
317
317
318
319
319
320
321
321
322
323
323
324
325
325
326
327
327
328
329
330
330
331
332
332
333
334
335
335
336
337
338
338
339
340
341
341
342
343
344
344
345
346
347
347
348
349
350
351
351
352
353
354
355
355
356
357
358
359
360
360
361
362
363
364
365
365
366
367
368
369
370
371
372
373
373
374
375
376
377
378
379
380
381
382
383
384
385
386
386
387
388
389
390
391
392
393
394
395
396
397
398
399
400
401
403
404
405
406
407
408
409
410
411
412
413
414
415
417
418
419
420
421
422
423
425
426
427
428
429
430
432
433
434
435
436
438
439
440
441
443
444
445
446
448
449
450
452
453
454
456
457
458
460
461
462
464
465
466
468
469
471
472
474
475
476
478
479
481
482
484
485
487
488
490
491
493
495
496
498
499
501
502
504
506
507
509
511
512
514
516
517
519
521
523
524
526
528
530
531
533
535
537
539
541
543
544
546
548
550
552
554
556
558
560
562
564
566
568
570
572
574
576
579
581
583
585
587
589
592
594
596
598
601
603
605
608
610
612
615
617
620
622
624
627
629
632
635
637
640
642
645
648
650
653
656
658
661
664
667
670
672
675
678
681
684
687
690
693
696
699
702
706
709
712
715
718
722
725
728
732
735
739
742
746
749
753
756
760
764
767
771
775
779
783
786
790
794
798
802
806
811
815
819
823
828
832
836
841
845
850
854
859
864
868
873
878
883
888
893
898
903
908
913
919
924
930
935
941
946
952
958
963
969
975
981
987
994
1000
1006
1013
1019
1026
1032
1039
1046
1053
1060
1067
1074
1081
1089
1096
1104
1112
1120
1127
1136
1144
1152
1160
1169
1178
1186
1195
1204
1213
1223
1232
1242
1252
1262
1272
1282
1292
1303
1314
1324
1336
1347
1358
1370
1382
1394
1406
1419
1432
1445
1458
1471
1485
1499
1513
1527
1542
1557
1573
1588
1604
1621
1637
1654
1671
1689
1707
1726
1744
1764
1783
1803
1824
1845
1867
1889
1911
1934
1958
1982
2007
2033
2059
2086
2113
2142
2171
2200
2231
2263
2295
2328
2363
2398
2435
2472
2511
2551
2592
2635
2679
2724
2771
2820
2871
2923
2977
3034
3092
3153
3216
3282
3350
3422
3496
3574
3656
3741
3830
3924
4022
4125
4234
4349
4470
4598
4733
4877
5029
5192
5365
5550
5749
5962
6192
6440
6708
7000
7319
7668
8051
8476
8947
9474
10066
10738
11505
12391
13424
14645
16111
17901
20140
23018
26856
32229
40288
53719
80583
161173
